! Commentaire
&control
 calculation = 'scf'
 prefix = 'SnO2'
 pseudo_dir ='./'
 outdir='./'
 /

&system
 ibrav = 2
 celldm(1) = 10.20
 nat = 2
 ntyp = 1
 ecutwfc = 5
 /

&electrons
conv_thr = 1.0d-10
/

ATOMIC_SPECIES
Si 28.086 Si_pseudo_UPF
ATOMIC_POSITIONS (crystal)
Si 0.00 0.00 0.00
Si 0.25 0.25 0.25
K_POINTS automatic
6 6 6 0 0 0


 
 

