&control
    calculation = 'scf'
    restart_mode='from_scratch'				 ! = default value
    prefix='SnO2'
    tstress = .true.					 ! calculate stresses
    tprnfor = .true.					 ! calculate forces
    pseudo_dir = '../../Pseudo_potentials'
    outdir='./'
 /
 &system
    ibrav = 6 						! tetragonal primitive
    nat   = 6
    ntyp  = 2
    celldm(1)= 9.13358018467
    celldm(3)= 0.671788693
    ecutwfc = 80					! 20
   ! ecutrho=80.0 					! default = 4*ecutwfc
   ! nbnd=8 						! default = insulator: #valence bands, metals :+20%
   occupations='smearing'
  smearing = 'mp'
  degauss = 0.01
  tot_charge = -0.01
 /
 &electrons
   ! mixing_mode = 'plain'  				! = default
   ! mixing_beta = 0.5
     conv_thr =  1.0d-20
 /
 &ions
 /
 &cell
 /
ATOMIC_SPECIES
 Sn 118.71 Sn_PBE.upf
 O  15.999 O_PBE.upf

ATOMIC_POSITIONS crystal
Sn      -0.000330617  -0.000330617   0.000000000
Sn       0.499669531   0.499669531   0.500000000
O        0.806361865   0.192964752   0.500000000
O        0.192964752   0.806361865   0.500000000
O        0.306365789   0.306365789   0.000000000
O        0.692968682   0.692968682   0.000000000

K_POINTS automatic
  6 6 6 0 0 0
