&input
 fildyn='SnO2.dynmat',
 zasr='simple'
 flfrc='SnO2_444.fc'
/

