&control
 calculation = 'vc-relax'
 prefix = 'SnO2'
 pseudo_dir = '../Pseudo_potentials'
 outdir = './'
 etot_conv_thr = 1.0d-5
 forc_conv_thr = 1.0d-4
/
&system
 ibrav     = 6 !Tetragonal Primitive
 celldm(1) = 9.11  !lattice parameter in a.u. = a = 4.835A
 celldm(3) = 0.67   !c/a
 nat       = 6
 ntyp      = 2
 ecutwfc   = 15
/
&electrons
 conv_thr  = 1d-8
/
ATOMIC_SPECIES
 Sn 118.71 Sn_PBE.upf
 O  15.999 O_PBE.upf
ATOMIC_POSITIONS crystal
 Sn  0.00 0.00 0.00
 Sn  0.50 0.50 0.50
 O   0.806 0.193  0.500
 O   0.193 0.806 0.500
 O   0.306 0.306 0.000
 O   0.693 0.693 0.000
K_POINTS automatic
6 6 6 0 0 0

