&control
 calculation = 'vc-relax'
 prefix = 'SnO2'
 pseudo_dir = '../Pseudo_potentials'
 outdir = './'
/
&system
 ibrav     = 6 !Tetragonal Primitive
 celldm(1) = 9.11  !lattice parameter in a.u. = a = 4.835A
 celldm(3) = 0.67   !c/a
 nat       = 6
 ntyp      = 2
 ecutwfc   = 15
/
&electrons
 conv_thr  = 1d-10
/
ATOMIC_SPECIES
 Sn 118.71 Sn_PBE.upf
 O  15.999 O_PBE.upf
ATOMIC_POSITIONS crystal
 Sn  0.00 0.00 0.00
 Sn  0.50 0.50 0.50
 O   0.806552  0.193448  0.500000
 O   0.193448  0.806552  0.500000
 O   0.306552  0.306552  0.000000
 O   0.693448  0.693448  0.000000
K_POINTS automatic
6 6 6 0 0 0
