&control
 calculation = 'scf'
 prefix = 'SnO2'
 pseudo_dir = './'
 outdir = './'
/
&system
 ibrav     = 6 !Tetragonal Primitive
 celldm(1) = 9.13115  !lattice parameter in a.u. = a = 4.835A
 celldm(3) = 0.6707   !c/a
 nat       = 6
 ntyp      = 2
 ecutwfc   = 15
/
&electrons
 conv_thr  = 1d-10
/
ATOMIC_SPECIES
 Sn 118.71 sn.upf
 O  15.999 o.upf
ATOMIC_POSITIONS crystal
 Sn  0.00 0.00 0.00
 Sn  0.50 0.50 0.50
 O   0.00 0.3064 0.3068
 O   0.00 0.6936 0.6932
 O   0.50 0.1936 0.8068
 O   0.50 0.8064 0.1932
K_POINTS automatic
6 6 6 0 0 0
