&input
 fildyn='epw.dynmat',
 zasr='simple'
 flfrc='epw.fc'
/

