&control
 calculation = 'bands'
 prefix = 'SnO2'
 pseudo_dir = '../Pseudo_potentials'
 outdir = './'
 !etot_conv_thr = 1.0d-3
 !forc_conv_thr = 1.0d-2
 wf_collect = .true 
 verbosity = 'high'
/
&system
 ibrav     = 6 !Tetragonal Primitive
 celldm(1) = 9.137032968  !lattice parameter in a.u. = a = 4.835A
 celldm(3) = 0.671597737
 nat = 6
 ntyp = 2
 ecutwfc = 75
/
&electrons
 conv_thr  = 1.0d-12
/
&ions
!ion_dynamics='bfgs'
/
&cell
!cell_dynamics='bfgs'
!cell_dofree = 'xyz'
/

ATOMIC_SPECIES
 Sn 118.71 Sn_PBE.upf
 O  15.999 O_PBE.upf
ATOMIC_POSITIONS crystal
 Sn      -0.000331970  -0.000331970   0.000000000
 Sn       0.499667480   0.499667480   0.500000000
 O        0.806369198   0.192961781   0.500000000
 O        0.192961781   0.806369198   0.500000000
 O        0.306370463   0.306370463   0.000000000
 O        0.692963048   0.692963048   0.000000000
K_POINTS crystal
284
    0.0000000000     0.0000000000     0.0000000000 1
    0.0000000000     0.0200000000     0.0000000000 1
    0.0000000000     0.0400000000     0.0000000000 1
    0.0000000000     0.0600000000     0.0000000000 1
    0.0000000000     0.0800000000     0.0000000000 1
    0.0000000000     0.1000000000     0.0000000000 1
    0.0000000000     0.1200000000     0.0000000000 1
    0.0000000000     0.1400000000     0.0000000000 1
    0.0000000000     0.1600000000     0.0000000000 1
    0.0000000000     0.1800000000     0.0000000000 1
    0.0000000000     0.2000000000     0.0000000000 1
    0.0000000000     0.2200000000     0.0000000000 1
    0.0000000000     0.2400000000     0.0000000000 1
    0.0000000000     0.2600000000     0.0000000000 1
    0.0000000000     0.2800000000     0.0000000000 1
    0.0000000000     0.3000000000     0.0000000000 1
    0.0000000000     0.3200000000     0.0000000000 1
    0.0000000000     0.3400000000     0.0000000000 1
    0.0000000000     0.3600000000     0.0000000000 1
    0.0000000000     0.3800000000     0.0000000000 1
    0.0000000000     0.4000000000     0.0000000000 1
    0.0000000000     0.4200000000     0.0000000000 1
    0.0000000000     0.4400000000     0.0000000000 1
    0.0000000000     0.4600000000     0.0000000000 1
    0.0000000000     0.4800000000     0.0000000000 1
    0.0000000000     0.5000000000     0.0000000000 1
    0.0200000000     0.5000000000     0.0000000000 1
    0.0400000000     0.5000000000     0.0000000000 1
    0.0600000000     0.5000000000     0.0000000000 1
    0.0800000000     0.5000000000     0.0000000000 1
    0.1000000000     0.5000000000     0.0000000000 1
    0.1200000000     0.5000000000     0.0000000000 1
    0.1400000000     0.5000000000     0.0000000000 1
    0.1600000000     0.5000000000     0.0000000000 1
    0.1800000000     0.5000000000     0.0000000000 1
    0.2000000000     0.5000000000     0.0000000000 1
    0.2200000000     0.5000000000     0.0000000000 1
    0.2400000000     0.5000000000     0.0000000000 1
    0.2600000000     0.5000000000     0.0000000000 1
    0.2800000000     0.5000000000     0.0000000000 1
    0.3000000000     0.5000000000     0.0000000000 1
    0.3200000000     0.5000000000     0.0000000000 1
    0.3400000000     0.5000000000     0.0000000000 1
    0.3600000000     0.5000000000     0.0000000000 1
    0.3800000000     0.5000000000     0.0000000000 1
    0.4000000000     0.5000000000     0.0000000000 1
    0.4200000000     0.5000000000     0.0000000000 1
    0.4400000000     0.5000000000     0.0000000000 1
    0.4600000000     0.5000000000     0.0000000000 1
    0.4800000000     0.5000000000     0.0000000000 1
    0.5000000000     0.5000000000     0.0000000000 1
    0.4857142857     0.4857142857     0.0000000000 1
    0.4714285714     0.4714285714     0.0000000000 1
    0.4571428571     0.4571428571     0.0000000000 1
    0.4428571429     0.4428571429     0.0000000000 1
    0.4285714286     0.4285714286     0.0000000000 1
    0.4142857143     0.4142857143     0.0000000000 1
    0.4000000000     0.4000000000     0.0000000000 1
    0.3857142857     0.3857142857     0.0000000000 1
    0.3714285714     0.3714285714     0.0000000000 1
    0.3571428571     0.3571428571     0.0000000000 1
    0.3428571429     0.3428571429     0.0000000000 1
    0.3285714286     0.3285714286     0.0000000000 1
    0.3142857143     0.3142857143     0.0000000000 1
    0.3000000000     0.3000000000     0.0000000000 1
    0.2857142857     0.2857142857     0.0000000000 1
    0.2714285714     0.2714285714     0.0000000000 1
    0.2571428571     0.2571428571     0.0000000000 1
    0.2428571429     0.2428571429     0.0000000000 1
    0.2285714286     0.2285714286     0.0000000000 1
    0.2142857143     0.2142857143     0.0000000000 1
    0.2000000000     0.2000000000     0.0000000000 1
    0.1857142857     0.1857142857     0.0000000000 1
    0.1714285714     0.1714285714     0.0000000000 1
    0.1571428571     0.1571428571     0.0000000000 1
    0.1428571429     0.1428571429     0.0000000000 1
    0.1285714286     0.1285714286     0.0000000000 1
    0.1142857143     0.1142857143     0.0000000000 1
    0.1000000000     0.1000000000     0.0000000000 1
    0.0857142857     0.0857142857     0.0000000000 1
    0.0714285714     0.0714285714     0.0000000000 1
    0.0571428571     0.0571428571     0.0000000000 1
    0.0428571429     0.0428571429     0.0000000000 1
    0.0285714286     0.0285714286     0.0000000000 1
    0.0142857143     0.0142857143     0.0000000000 1
    0.0000000000     0.0000000000     0.0000000000 1
    0.0000000000     0.0000000000     0.0135135135 1
    0.0000000000     0.0000000000     0.0270270270 1
    0.0000000000     0.0000000000     0.0405405405 1
    0.0000000000     0.0000000000     0.0540540541 1
    0.0000000000     0.0000000000     0.0675675676 1
    0.0000000000     0.0000000000     0.0810810811 1
    0.0000000000     0.0000000000     0.0945945946 1
    0.0000000000     0.0000000000     0.1081081081 1
    0.0000000000     0.0000000000     0.1216216216 1
    0.0000000000     0.0000000000     0.1351351351 1
    0.0000000000     0.0000000000     0.1486486486 1
    0.0000000000     0.0000000000     0.1621621622 1
    0.0000000000     0.0000000000     0.1756756757 1
    0.0000000000     0.0000000000     0.1891891892 1
    0.0000000000     0.0000000000     0.2027027027 1
    0.0000000000     0.0000000000     0.2162162162 1
    0.0000000000     0.0000000000     0.2297297297 1
    0.0000000000     0.0000000000     0.2432432432 1
    0.0000000000     0.0000000000     0.2567567568 1
    0.0000000000     0.0000000000     0.2702702703 1
    0.0000000000     0.0000000000     0.2837837838 1
    0.0000000000     0.0000000000     0.2972972973 1
    0.0000000000     0.0000000000     0.3108108108 1
    0.0000000000     0.0000000000     0.3243243243 1
    0.0000000000     0.0000000000     0.3378378378 1
    0.0000000000     0.0000000000     0.3513513514 1
    0.0000000000     0.0000000000     0.3648648649 1
    0.0000000000     0.0000000000     0.3783783784 1
    0.0000000000     0.0000000000     0.3918918919 1
    0.0000000000     0.0000000000     0.4054054054 1
    0.0000000000     0.0000000000     0.4189189189 1
    0.0000000000     0.0000000000     0.4324324324 1
    0.0000000000     0.0000000000     0.4459459459 1
    0.0000000000     0.0000000000     0.4594594595 1
    0.0000000000     0.0000000000     0.4729729730 1
    0.0000000000     0.0000000000     0.4864864865 1
    0.0000000000     0.0000000000     0.5000000000 1
    0.0000000000     0.0200000000     0.5000000000 1
    0.0000000000     0.0400000000     0.5000000000 1
    0.0000000000     0.0600000000     0.5000000000 1
    0.0000000000     0.0800000000     0.5000000000 1
    0.0000000000     0.1000000000     0.5000000000 1
    0.0000000000     0.1200000000     0.5000000000 1
    0.0000000000     0.1400000000     0.5000000000 1
    0.0000000000     0.1600000000     0.5000000000 1
    0.0000000000     0.1800000000     0.5000000000 1
    0.0000000000     0.2000000000     0.5000000000 1
    0.0000000000     0.2200000000     0.5000000000 1
    0.0000000000     0.2400000000     0.5000000000 1
    0.0000000000     0.2600000000     0.5000000000 1
    0.0000000000     0.2800000000     0.5000000000 1
    0.0000000000     0.3000000000     0.5000000000 1
    0.0000000000     0.3200000000     0.5000000000 1
    0.0000000000     0.3400000000     0.5000000000 1
    0.0000000000     0.3600000000     0.5000000000 1
    0.0000000000     0.3800000000     0.5000000000 1
    0.0000000000     0.4000000000     0.5000000000 1
    0.0000000000     0.4200000000     0.5000000000 1
    0.0000000000     0.4400000000     0.5000000000 1
    0.0000000000     0.4600000000     0.5000000000 1
    0.0000000000     0.4800000000     0.5000000000 1
    0.0000000000     0.5000000000     0.5000000000 1
    0.0200000000     0.5000000000     0.5000000000 1
    0.0400000000     0.5000000000     0.5000000000 1
    0.0600000000     0.5000000000     0.5000000000 1
    0.0800000000     0.5000000000     0.5000000000 1
    0.1000000000     0.5000000000     0.5000000000 1
    0.1200000000     0.5000000000     0.5000000000 1
    0.1400000000     0.5000000000     0.5000000000 1
    0.1600000000     0.5000000000     0.5000000000 1
    0.1800000000     0.5000000000     0.5000000000 1
    0.2000000000     0.5000000000     0.5000000000 1
    0.2200000000     0.5000000000     0.5000000000 1
    0.2400000000     0.5000000000     0.5000000000 1
    0.2600000000     0.5000000000     0.5000000000 1
    0.2800000000     0.5000000000     0.5000000000 1
    0.3000000000     0.5000000000     0.5000000000 1
    0.3200000000     0.5000000000     0.5000000000 1
    0.3400000000     0.5000000000     0.5000000000 1
    0.3600000000     0.5000000000     0.5000000000 1
    0.3800000000     0.5000000000     0.5000000000 1
    0.4000000000     0.5000000000     0.5000000000 1
    0.4200000000     0.5000000000     0.5000000000 1
    0.4400000000     0.5000000000     0.5000000000 1
    0.4600000000     0.5000000000     0.5000000000 1
    0.4800000000     0.5000000000     0.5000000000 1
    0.5000000000     0.5000000000     0.5000000000 1
    0.4857142857     0.4857142857     0.5000000000 1
    0.4714285714     0.4714285714     0.5000000000 1
    0.4571428571     0.4571428571     0.5000000000 1
    0.4428571429     0.4428571429     0.5000000000 1
    0.4285714286     0.4285714286     0.5000000000 1
    0.4142857143     0.4142857143     0.5000000000 1
    0.4000000000     0.4000000000     0.5000000000 1
    0.3857142857     0.3857142857     0.5000000000 1
    0.3714285714     0.3714285714     0.5000000000 1
    0.3571428571     0.3571428571     0.5000000000 1
    0.3428571429     0.3428571429     0.5000000000 1
    0.3285714286     0.3285714286     0.5000000000 1
    0.3142857143     0.3142857143     0.5000000000 1
    0.3000000000     0.3000000000     0.5000000000 1
    0.2857142857     0.2857142857     0.5000000000 1
    0.2714285714     0.2714285714     0.5000000000 1
    0.2571428571     0.2571428571     0.5000000000 1
    0.2428571429     0.2428571429     0.5000000000 1
    0.2285714286     0.2285714286     0.5000000000 1
    0.2142857143     0.2142857143     0.5000000000 1
    0.2000000000     0.2000000000     0.5000000000 1
    0.1857142857     0.1857142857     0.5000000000 1
    0.1714285714     0.1714285714     0.5000000000 1
    0.1571428571     0.1571428571     0.5000000000 1
    0.1428571429     0.1428571429     0.5000000000 1
    0.1285714286     0.1285714286     0.5000000000 1
    0.1142857143     0.1142857143     0.5000000000 1
    0.1000000000     0.1000000000     0.5000000000 1
    0.0857142857     0.0857142857     0.5000000000 1
    0.0714285714     0.0714285714     0.5000000000 1
    0.0571428571     0.0571428571     0.5000000000 1
    0.0428571429     0.0428571429     0.5000000000 1
    0.0285714286     0.0285714286     0.5000000000 1
    0.0142857143     0.0142857143     0.5000000000 1
    0.0000000000     0.0000000000     0.5000000000 1
    0.0000000000     0.5000000000     0.0000000000 1
    0.0000000000     0.5000000000     0.0135135135 1
    0.0000000000     0.5000000000     0.0270270270 1
    0.0000000000     0.5000000000     0.0405405405 1
    0.0000000000     0.5000000000     0.0540540541 1
    0.0000000000     0.5000000000     0.0675675676 1
    0.0000000000     0.5000000000     0.0810810811 1
    0.0000000000     0.5000000000     0.0945945946 1
    0.0000000000     0.5000000000     0.1081081081 1
    0.0000000000     0.5000000000     0.1216216216 1
    0.0000000000     0.5000000000     0.1351351351 1
    0.0000000000     0.5000000000     0.1486486486 1
    0.0000000000     0.5000000000     0.1621621622 1
    0.0000000000     0.5000000000     0.1756756757 1
    0.0000000000     0.5000000000     0.1891891892 1
    0.0000000000     0.5000000000     0.2027027027 1
    0.0000000000     0.5000000000     0.2162162162 1
    0.0000000000     0.5000000000     0.2297297297 1
    0.0000000000     0.5000000000     0.2432432432 1
    0.0000000000     0.5000000000     0.2567567568 1
    0.0000000000     0.5000000000     0.2702702703 1
    0.0000000000     0.5000000000     0.2837837838 1
    0.0000000000     0.5000000000     0.2972972973 1
    0.0000000000     0.5000000000     0.3108108108 1
    0.0000000000     0.5000000000     0.3243243243 1
    0.0000000000     0.5000000000     0.3378378378 1
    0.0000000000     0.5000000000     0.3513513514 1
    0.0000000000     0.5000000000     0.3648648649 1
    0.0000000000     0.5000000000     0.3783783784 1
    0.0000000000     0.5000000000     0.3918918919 1
    0.0000000000     0.5000000000     0.4054054054 1
    0.0000000000     0.5000000000     0.4189189189 1
    0.0000000000     0.5000000000     0.4324324324 1
    0.0000000000     0.5000000000     0.4459459459 1
    0.0000000000     0.5000000000     0.4594594595 1
    0.0000000000     0.5000000000     0.4729729730 1
    0.0000000000     0.5000000000     0.4864864865 1
    0.0000000000     0.5000000000     0.5000000000 1
    0.5000000000     0.5000000000     0.0000000000 1
    0.5000000000     0.5000000000     0.0135135135 1
    0.5000000000     0.5000000000     0.0270270270 1
    0.5000000000     0.5000000000     0.0405405405 1
    0.5000000000     0.5000000000     0.0540540541 1
    0.5000000000     0.5000000000     0.0675675676 1
    0.5000000000     0.5000000000     0.0810810811 1
    0.5000000000     0.5000000000     0.0945945946 1
    0.5000000000     0.5000000000     0.1081081081 1
    0.5000000000     0.5000000000     0.1216216216 1
    0.5000000000     0.5000000000     0.1351351351 1
    0.5000000000     0.5000000000     0.1486486486 1
    0.5000000000     0.5000000000     0.1621621622 1
    0.5000000000     0.5000000000     0.1756756757 1
    0.5000000000     0.5000000000     0.1891891892 1
    0.5000000000     0.5000000000     0.2027027027 1
    0.5000000000     0.5000000000     0.2162162162 1
    0.5000000000     0.5000000000     0.2297297297 1
    0.5000000000     0.5000000000     0.2432432432 1
    0.5000000000     0.5000000000     0.2567567568 1
    0.5000000000     0.5000000000     0.2702702703 1
    0.5000000000     0.5000000000     0.2837837838 1
    0.5000000000     0.5000000000     0.2972972973 1
    0.5000000000     0.5000000000     0.3108108108 1
    0.5000000000     0.5000000000     0.3243243243 1
    0.5000000000     0.5000000000     0.3378378378 1
    0.5000000000     0.5000000000     0.3513513514 1
    0.5000000000     0.5000000000     0.3648648649 1
    0.5000000000     0.5000000000     0.3783783784 1
    0.5000000000     0.5000000000     0.3918918919 1
    0.5000000000     0.5000000000     0.4054054054 1
    0.5000000000     0.5000000000     0.4189189189 1
    0.5000000000     0.5000000000     0.4324324324 1
    0.5000000000     0.5000000000     0.4459459459 1
    0.5000000000     0.5000000000     0.4594594595 1
    0.5000000000     0.5000000000     0.4729729730 1
    0.5000000000     0.5000000000     0.4864864865 1
    0.5000000000     0.5000000000     0.5000000000 1

